data_global 
_audit_creation_date        "13-02-28"
_audit_creation_method CRYSTALS_ver_14.11

_oxford_structure_analysis_title  'Br_Br_Ni_1 in P2(1)/m'
_chemical_name_systematic         ?
_chemical_melting_point           ?

#looking for refcif 
 
 
# Check this file using the IUCr facility at: 
# http://checkcif.iucr.org/ 
 
# The content below is held in the file 'script/refcif.dat'. This is a text 
# file which you may edit to reflect local conditions. 
# Items which need looking at are represented by a '?'. 
# Items for which there are choices are prefixed with 'choose from'. 
 
_publ_contact_letter 
; 
 Please consider this CIF submission for 
 publication as a Short Format Paper in Acta 
 Crystallographica E. 
; 
_publ_contact_author_name         'Anthony Other' 
_publ_contact_author_address 
; 
 Chemical Crystallography Laboratory, 
 Department of Chemistry, 
 University of Nowhere, 
 Nowhere, NO1 4T, UK. 
; 
 
_publ_contact_author_phone        '+44 1865 000000' 
_publ_contact_author_fax          '+44 1865 000000' 
_publ_contact_author_email        'a.n.other@chem.no.ac.uk' 
_publ_requested_journal           'Section E' 
_publ_requested_category          EO # choose from: FI FM FO CI CM CO AD 
_publ_requested_coeditor_name     'Prof William Clegg' 
 
_publ_section_title 
# Title of paper - generally just the systematic or trivial name 
; ? 
; 
 
# The loop structure below should contain the names and addresses of all 
# authors, in the required order of publication. Repeat as necessary. 
loop_ 
 _publ_author_name 
 _publ_author_address 
 _publ_author_footnote 
 'Other, Anthony N.' # Author 1 
; 
 ? # Address for author 1 
; 
; 
 ? # Footnote for author 1 
; 
 'Else, S. O.' # Author 2 
; 
 ? # Address 2 
; 
; 
 ? # Footnote 2 
; 
 
 
_publ_section_abstract 
# Text of the abstract 
# (a) The Abstract must be self-contained and comprehensible 
# without the rest of the paper. This means no references 
# to atom names or to compound numbers; compounds must be 
# identified as the title compound, or by name or by some other 
# means such as derivatives of each other (e.g. "the 
# corresponding ketone"). 
# (b) The chemical formula of "the title compound" must be given. 
# (c) Any crystallographic molecular symmetry should be 
# mentioned, and also the presence of more than one molecule 
# in the asymmetric unit (i.e. anything other than Z'=1). 
; 
? 
; 
 
_publ_section_related_literature  # Not in version 2.3.1 
############################################################### 
# Essential references (e.g. to the origin of the material studied, related 
# structural studies, and to information supporting the reported structure) 
# should be cited in this section, with appropriate very brief explanatory 
# text, for example `The synthesis of the complex is described by Jones 
# (2001). The anhydrous complex has essentially the same coordination 
# geometry (Smith, 2003).' In addition, all references included in the 
# supplementary materials, but not elsewhere in the published article, 
# should be given here. The simple text `For related literature, see:...' 
# may be used, but further details should be provided in the Comment 
# section, which forms part of the supplementary material. 
############################################################### 
; 
? 
; 
 
_publ_section_comment 
# Text of the paper 
# Note that atoms are referenced as N2, not N(2) or N~2~ 
# If text containing () occur within (), the outer ones should be [] 
# Figures should be referenced as Fig. 
; 
? 
; 
_publ_section_acknowledgements    # Acknowledgments 
; 
? 
; 
_publ_section_figure_captions 
# Captions to figures - Start each caption on a new line after a blank line 
; 
Fig. 1. 
The title compound with displacement ellipsoids drawn at the 50% 
probability level. H atoms are shown as spheres of 
arbitary radius. 
 
; 
 
 
_publ_section_exptl_refinement 
# Some potentially useful phrases are donated by Bill Clegg: 
; 
In the absence of significant anomalous scattering, Friedel pairs were 
merged. 
 
The absolute configuration was arbitrarily assigned. 
 
The relatively large ratio of minimum to maximum corrections applied 
in the multiscan process (1:nnn) reflect changes in the illuminated 
volume of the crystal. 
 
Changes in illuminated volume were kept to a minimum, and were 
taken into account (G\"orbitz, 1999) by the multi-scan inter-frame 
scaling (DENZO/SCALEPACK, Otwinowski & Minor, 1997). 
 
 
G\"orbitz, C. H. (1999). Acta Cryst. B55, 1090-1098. 
 
 
 
 
The H atoms were all located in a difference map, but those 
attached to carbon atoms were repositioned geometrically. 
The H atoms were initially refined with soft restraints on the 
bond lengths and angles to regularise their geometry 
(C---H in the range 0.93--0.98, 
N---H in the range 0.86--0.89 
N---H to 0.86 
O---H = 0.82 
\%A) 
and 
U~iso~(H) (in the range 1.2-1.5 times U~eq~ of the parent atom), 
after which the positions were refined with riding constraints. 
 
; 
 
_publ_section_exptl_prep 
# Brief details or a reference. Include solvent if known 
; 
? 
; 
 
# Hand-made tables can be put in the cif. The number of columns 
# is set in the loop header. 
# The contants of each column can either be a piece of text 
# without any spaces (eg a number) or other text enclosed in " " 
# Remove the leading # in the following example 
 
#geom_extra_table_head_A 
#; 
#Table 2. 
#Molecular parameters deviating most from MOGUL averages 
#; 
# 
#loop_ 
#_geom_extra_tableA_col_1 
#_geom_extra_tableA_col_2 
#_geom_extra_tableA_col_3 
#_geom_extra_tableA_col_4 
# 
#Parameter "Observed Value" "MOGUL Value" "MOGUL e.s.d" 
#N5-C6-C4 129 124 "7 (\%)" 
#C3-O10-C2 105 109 "2 (\%)" 
#C6-O7 1.25 1.22 ".02 (\%A)" 
# 
 
data_1 
 
_exptl_special_details 
; 
 The crystal was 
placed in the cold stream of an Oxford 
Cryosystems open-flow nitrogen cryostat (Cosier & 
Glazer, 1986) with a nominal stability of 0.1K. 
 
Cosier, J. & Glazer, A.M., 1986. J. Appl. Cryst. 105 107. 
; 
_refine_special_details 
; 
? 
; 
#--------------------------------------------------------------- 
# _oxford_ data items, April 2010: 
# There is some uncertainty about the correct way of forming local data 
# names, e.g. 
 
# _atom_site_special_shape_oxford 
# or 
# _oxford_atom_site_special_shape 
 
# see: 
# http://www.iucr.org/resources/cif/spec/version1.1/semantics#namespace 
 
# A reserved prefix, e.g. foo, must be used in the following way 
# " If the data file contains items defined in a DDL1 dictionary, the 
# local data names assigned under the reserved prefix must contain it as 
# their first component, e.g. _foo_atom_site_my_item. " 
 
# However, this seems to say the opposite: 
# http://www.iucr.org/__data/iucr/cif/standard/cifstd8.html 
 
# According to advice from the IUCr, CRYSTALS is correct 
#--------------------------------------------------------------- 
# End of 'script/refcif.dat' 
#end of refcif 
_cell_length_a                    4.6142(5)
_cell_length_b                    24.043(3)
_cell_length_c                    9.2239(12)
_cell_angle_alpha                 90.094(11)
_cell_angle_beta                  91.452(10)
_cell_angle_gamma                 89.987(10)
_cell_volume                      1023.0(2)
 
_symmetry_cell_setting            'monoclinic' 
_symmetry_space_group_name_H-M    'P 21/c ' 
_symmetry_space_group_name_Hall   ? 
loop_
 _symmetry_equiv_pos_as_xyz
 'x,y,z'
 '-x,-y,-z'
 'x,-y+1/2,z+1/2'
 '-x,y+1/2,-z+1/2'

loop_
_atom_type_symbol
_atom_type_scat_dispersion_real
_atom_type_scat_dispersion_imag
_atom_type_scat_Cromer_Mann_a1
_atom_type_scat_Cromer_Mann_b1
_atom_type_scat_Cromer_Mann_a2
_atom_type_scat_Cromer_Mann_b2
_atom_type_scat_Cromer_Mann_a3
_atom_type_scat_Cromer_Mann_b3
_atom_type_scat_Cromer_Mann_a4
_atom_type_scat_Cromer_Mann_b4
_atom_type_scat_Cromer_Mann_c
_atom_type_scat_source  
 C       0.0181   0.0091   2.3100  20.8439   1.0200  10.2075   1.5886   0.5687
   0.8650  51.6512   0.2156 'International Tables Vol C 4.2.6.8 and 6.1.1.4'
 H       0.0000   0.0000   0.4930  10.5109   0.3229  26.1257   0.1402   3.1424
   0.0408  57.7998   0.0030 'International Tables Vol C 4.2.6.8 and 6.1.1.4'
 N       0.0311   0.0180  12.2126   0.0057   3.1322   9.8933   2.0125  28.9975
   1.1663   0.5826 -11.5290 'International Tables Vol C 4.2.6.8 and 6.1.1.4'
 O       0.0492   0.0322   3.0485  13.2771   2.2868   5.7011   1.5463   0.3239
   0.8670  32.9089   0.2508 'International Tables Vol C 4.2.6.8 and 6.1.1.4'
 Ni     -3.0029   0.5091  12.8376   3.8785   7.2920   0.2565   4.4438  12.1763
   2.3800  66.3421   1.0341 'International Tables Vol C 4.2.6.8 and 6.1.1.4'
 Br     -0.6763   1.2805  17.1789   2.1723   5.2358  16.5796   5.6377   0.2609
   3.9851  41.4328   2.9557 'International Tables Vol C 4.2.6.8 and 6.1.1.4'
 
 
_cell_formula_units_Z                    2

# Given Formula = C30 Br4 N4 Ni1 
# Dc =      2.58 Fooo =    644.00 Mu =    108.21 M =    397.34
# Found Formula = C18 H16 Br4 N2 Ni1 O2 
# Dc =      2.18 FOOO =    644.00 Mu =    106.64 M =    335.33

_chemical_formula_sum             'C18 H16 Br4 N2 Ni1 O2'
_chemical_formula_moiety          'C18 H16 Br4 N2 Ni1 O2'
_chemical_compound_source                ?
_chemical_formula_weight            670.66
 
 
_cell_measurement_reflns_used            0
_cell_measurement_theta_min              0
_cell_measurement_theta_max              0
_cell_measurement_temperature          293
 
_exptl_crystal_description        '?' 
_exptl_crystal_colour             '?' 
_exptl_crystal_size_min           ? 
_exptl_crystal_size_mid           ? 
_exptl_crystal_size_max           ? 
 
_exptl_crystal_density_diffrn     2.177 
_exptl_crystal_density_meas       ? 
_exptl_crystal_density_method     'not measured' 
# Non-dispersive F(000): 
_exptl_crystal_F_000              644 
_exptl_absorpt_coefficient_mu     10.664 
 
# Sheldrick geometric approximatio 1.00 1.00 
_exptl_absorpt_correction_type    none 
_exptl_absorpt_correction_T_min   1.0000 
_exptl_absorpt_correction_T_max   1.0000 
_diffrn_measurement_device_type   'Unknown' 
_diffrn_measurement_device        'Serial' 
_diffrn_radiation_monochromator   'graphite' 
_diffrn_radiation_type            'Cu K\a'
_diffrn_radiation_wavelength           1.54184
_diffrn_measurement_method        \w/2\q 
 
# If a reference occurs more than once, delete the author 
# and date from subsequent references. 
_computing_data_collection        'USER DEFINED DATA COLLECTION' 
_computing_cell_refinement        'USER DEFINED CELL REFINEMENT' 
_computing_data_reduction         'USER DEFINED DATA REDUCTION' 
_computing_structure_solution     'SIR92 (Altomare et al., 1994)' 
_computing_structure_refinement   'CRYSTALS (Betteridge et al., 2003)' 
_computing_publication_material   'CRYSTALS (Betteridge et al., 2003)' 
_computing_molecular_graphics     'CAMERON (Watkin et al., 1996)' 
 
_diffrn_standards_interval_time   . 
_diffrn_standards_interval_count  . 
_diffrn_standards_number          0 
_diffrn_standards_decay_%         ? 
 
_diffrn_ambient_temperature        293
_diffrn_reflns_number             1725 
_reflns_number_total              1725 
_diffrn_reflns_av_R_equivalents   0.102 
# Number of reflections without Friedels Law is 0 
# Number of reflections with Friedels Law is 1725 
# Theoretical number of reflections is about 3640 
 
 
_diffrn_reflns_theta_min          3.677 
_diffrn_reflns_theta_max          66.904 
_diffrn_measured_fraction_theta_max 0.945 
 
_diffrn_reflns_theta_full         58.876 
_diffrn_measured_fraction_theta_full 0.995 
 
 
_diffrn_reflns_limit_h_min        -5 
_diffrn_reflns_limit_h_max        5 
_diffrn_reflns_limit_k_min        0 
_diffrn_reflns_limit_k_max        27 
_diffrn_reflns_limit_l_min        0 
_diffrn_reflns_limit_l_max        10 
_reflns_limit_h_min               -5 
_reflns_limit_h_max               5 
_reflns_limit_k_min               0 
_reflns_limit_k_max               27 
_reflns_limit_l_min               0 
_reflns_limit_l_max               10 
 
_oxford_diffrn_Wilson_B_factor    2.48 
_oxford_diffrn_Wilson_scale       0.27 
 
_atom_sites_solution_primary      direct #heavy,direct,difmap,geom
# _atom_sites_solution_secondary  difmap
_atom_sites_solution_hydrogens    geom
 
_refine_diff_density_min          -2.79 
_refine_diff_density_max          6.97 
 
 
# The current dictionary definitions do not cover the 
# situation where the reflections used for refinement were 
# selected by a user-defined sigma threshold 
 
 
# The values actually used during refinement 
_oxford_reflns_threshold_expression_ref     I>-10.0\s(I)
_refine_ls_number_reflns          1725 
_refine_ls_number_restraints      0 
_refine_ls_number_parameters      124 
_oxford_refine_ls_R_factor_ref    0.1827 
_refine_ls_wR_factor_ref          0.3736 
_refine_ls_goodness_of_fit_ref    2.3494 
_refine_ls_shift/su_max           0.0001765 
_refine_ls_shift/su_mean          0.0000176 
 
 
# The values computed from all data 
_oxford_reflns_number_all         1725 
_refine_ls_R_factor_all           0.1827 
_refine_ls_wR_factor_all          0.3736 
 
# The values computed with a 2 sigma cutoff - a la SHELX 
_reflns_threshold_expression      I>2.0\s(I)
_reflns_number_gt                 1427 
_refine_ls_R_factor_gt            0.1734 
_refine_ls_wR_factor_gt           0.3692 
 
# choose from: rm (reference molecule of known chirality), 
# ad (anomolous dispersion - Flack), rmad (rm and ad), 
# syn (from synthesis), unk (unknown) or . (not applicable). 
_chemical_absolute_configuration  '.' 
 
 
_refine_ls_structure_factor_coef  Fsqd 
_refine_ls_matrix_type            full
_refine_ls_hydrogen_treatment     none           # none, undef, noref, refall,
                                                 # refxyz, refU, constr or mixed
_refine_ls_weighting_scheme       calc 
_refine_ls_weighting_details 
;
 Method= Modified Sheldrick 
 w=1/[\s^2^(F^2^) + ( 0.10P)^2^ + 0.00P] 
 ,where P=p(6)*max(Fo^2^,0) + (1-p(6))Fc^2^ 
;
# Insert your own references if required - in alphabetical order 
_publ_section_references 
; 
User-defined data collection reference 
 
User defined data reduction 
 
User defined cell refinement 
 
Altomare, A., Cascarano, G., Giacovazzo, C., Guagliardi, A., Burla, M.C., 
Polidori, G. & Camalli, M. (1994). J. Appl. Cryst. 27, 435. 
 
Betteridge, P.W., Carruthers, J.R., Cooper, R.I., 
Prout, K. & Watkin, D.J. (2003). J. Appl. Cryst. 36, 1487. 
 
Watkin, D.J., Prout, C.K. & Pearce, L.J. (1996). CAMERON, Chemical 
Crystallography Laboratory, Oxford, UK. 
; 

# Uequiv = arithmetic mean of Ui i.e. Ueqiv = (U1+U2+U3)/3

# Replace last . with number of unfound hydrogen atomsattached to an atom.

# ..._refinement_flags_... 
# . no refinement constraints           S special position constraint on site
# G rigid group refinement of site      R riding atom
# D distance or angle restraint on site T thermal displacement constraints
# U Uiso or Uij restraint (rigid bond)  P partial occupancy constraint


loop_
_atom_site_label
_atom_site_type_symbol
_atom_site_fract_x
_atom_site_fract_y
_atom_site_fract_z
_atom_site_U_iso_or_equiv
_atom_site_occupancy
_atom_site_adp_type
_atom_site_refinement_flags_posn
_atom_site_refinement_flags_adp
_atom_site_refinement_flags_occupancy
_atom_site_disorder_assembly
_atom_site_disorder_group
_atom_site_attached_hydrogens
C7 C 0.169(5) 0.5908(8) 1.122(3) 0.0292 1.0000 Uani . . . . . . 
C8 C -0.048(5) 0.6069(9) 1.222(2) 0.0271 1.0000 Uani . . . . . . 
C9 C -0.141(5) 0.6626(9) 1.225(2) 0.0293 1.0000 Uani . . . . . . 
C10 C -0.039(5) 0.7027(10) 1.125(3) 0.0322 1.0000 Uani . . . . . . 
C12 C 0.163(5) 0.6861(9) 1.027(3) 0.0306 1.0000 Uani . . . . . . 
C13 C 0.266(5) 0.6304(9) 1.024(3) 0.0291 1.0000 Uani . . . . . . 

loop_
_atom_site_aniso_label
_atom_site_aniso_U_11
_atom_site_aniso_U_22
_atom_site_aniso_U_33
_atom_site_aniso_U_23
_atom_site_aniso_U_13
_atom_site_aniso_U_12
Br1 0.0423(14) 0.0302(13) 0.0274(14) 0.0030(9) 0.0068(9) -0.0033(9) 
C2 0.049(13) 0.025(11) 0.020(11) -0.002(9) 0.006(9) -0.012(9) 
C3 0.036(11) 0.022(10) 0.021(11) -0.004(8) -0.002(8) -0.013(8) 
N4 0.026(8) 0.024(9) 0.029(10) 0.007(8) 0.005(7) 0.005(7) 
Ni5 0.025(2) 0.006(2) 0.015(2) 0.0001(17) 0.0084(17) 0.0034(16) 
O6 0.039(8) 0.018(7) 0.036(9) 0.010(6) 0.013(7) 0.008(6) 
C7 0.043(12) 0.008(10) 0.037(13) 0.007(9) 0.004(10) 0.006(8) 
C8 0.040(11) 0.030(11) 0.012(10) 0.002(8) 0.007(8) 0.004(9) 
C9 0.038(12) 0.029(11) 0.020(11) -0.006(9) 0.003(9) -0.002(9) 
C10 0.032(12) 0.024(12) 0.040(14) -0.007(10) 0.010(10) -0.001(8) 
Br11 0.0593(18) 0.0219(13) 0.0446(17) -0.0036(10) 0.0152(12) 0.0086(11) 
C12 0.037(12) 0.017(10) 0.038(13) -0.006(9) 0.009(10) 0.009(9) 
C13 0.037(12) 0.017(10) 0.034(13) -0.001(9) 0.006(9) 0.001(8) 
C14 0.025(10) 0.030(12) 0.041(14) -0.020(10) 0.017(9) -0.017(9) 

_refine_ls_extinction_method 
    'None'
_oxford_refine_ls_scale 1.89(8) 
loop_
 _geom_bond_atom_site_label_1
 _geom_bond_site_symmetry_1
 _geom_bond_atom_site_label_2
 _geom_bond_site_symmetry_2
 _geom_bond_distance
 _geom_bond_publ_flag
Br1 . C2 . 1.96(2)    yes
C2 . C3 . 1.49(3)    yes
C2 . H22 . 0.970    no
C2 . H21 . 0.972    no
C3 . N4 . 1.47(3)    yes
C3 . H32 . 0.970    no
C3 . H31 . 0.971    no
N4 . Ni5 . 1.992(17)    yes
N4 . C14 . 1.28(3)    yes
Ni5 . O6 2_667 1.873(14)    yes
Ni5 . O6 . 1.873(14)    yes
O6 . C7 . 1.32(2)    yes
C7 . C8 . 1.44(3)    yes
C7 . C13 . 1.39(3)    yes
C8 . C9 . 1.41(3)    yes
C8 . H81 . 0.930    no
C9 . C10 . 1.42(3)    yes
C9 . H91 . 0.930    no
C10 . Br11 . 1.87(2)    yes
C10 . C12 . 1.37(3)    yes
C12 . C13 . 1.42(3)    yes
C12 . H121 . 0.931    no
C13 . C14 . 1.46(3)    yes
C14 . H141 . 0.930    no
loop_
 _geom_angle_atom_site_label_1
 _geom_angle_site_symmetry_1
 _geom_angle_atom_site_label_2
 _geom_angle_site_symmetry_2
 _geom_angle_atom_site_label_3
 _geom_angle_site_symmetry_3
 _geom_angle
 _geom_angle_publ_flag
Br1 . C2 . C3 . 110.8(16)    yes
Br1 . C2 . H22 . 109.2    no
C3 . C2 . H22 . 109.5    no
Br1 . C2 . H21 . 109.3    no
C3 . C2 . H21 . 108.5    no
H22 . C2 . H21 . 109.4    no
C2 . C3 . N4 . 112.4(18)    yes
C2 . C3 . H32 . 108.3    no
N4 . C3 . H32 . 108.6    no
C2 . C3 . H31 . 109.1    no
N4 . C3 . H31 . 108.8    no
H32 . C3 . H31 . 109.6    no
C3 . N4 . Ni5 . 120.7(13)    yes
C3 . N4 . C14 . 113.9(18)    yes
Ni5 . N4 . C14 . 125.4(15)    yes
N4 . Ni5 . N4 2_667 179.994    yes
N4 . Ni5 . O6 2_667 88.1(7)    yes
N4 2_667 Ni5 . O6 2_667 91.9(7)    yes
N4 . Ni5 . O6 . 91.9(7)    yes
N4 2_667 Ni5 . O6 . 88.1(7)    yes
O6 2_667 Ni5 . O6 . 179.994    yes
Ni5 . O6 . C7 . 130.0(14)    yes
O6 . C7 . C8 . 116.9(18)    yes
O6 . C7 . C13 . 124.3(20)    yes
C8 . C7 . C13 . 118.3(18)    yes
C7 . C8 . C9 . 119.0(19)    yes
C7 . C8 . H81 . 120.3    no
C9 . C8 . H81 . 120.7    no
C8 . C9 . C10 . 121.9(20)    yes
C8 . C9 . H91 . 119.3    no
C10 . C9 . H91 . 118.8    no
C9 . C10 . Br11 . 120.3(16)    yes
C9 . C10 . C12 . 118(2)    yes
Br11 . C10 . C12 . 121.6(18)    yes
C10 . C12 . C13 . 121(2)    yes
C10 . C12 . H121 . 119.3    no
C13 . C12 . H121 . 119.3    no
C12 . C13 . C7 . 121.2(20)    yes
C12 . C13 . C14 . 117.0(19)    yes
C7 . C13 . C14 . 121.7(20)    yes
C13 . C14 . N4 . 126(2)    yes
C13 . C14 . H141 . 117.2    no
N4 . C14 . H141 . 116.7    no


_iucr_refine_instruction_details_constraints
;
#
# Punched on 28/02/13 at 15:53:17
#
#LIST     12                                                                    
BLOCK SCALE X'S, U'S 
RIDE C   (   2,X'S) H   (  22,X'S) H   (  21,X'S) 
RIDE C   (   3,X'S) H   (  32,X'S) H   (  31,X'S) 
RIDE C   (   8,X'S) H   (  81,X'S) 
RIDE C   (   9,X'S) H   (  91,X'S) 
RIDE C   (  12,X'S) H   ( 121,X'S) 
RIDE C   (  14,X'S) H   ( 141,X'S) 
END                                                                             
;


_iucr_refine_instruction_details_restraints
;
#
# Punched on 28/02/13 at 15:53:17
#
#LIST     16                                                                    
NO 
REM   HREST   START (DO NOT REMOVE THIS LINE) 
REM   HREST   END (DO NOT REMOVE THIS LINE) 
END                                                                             
;
