
#######################################################################
#
#                 Cambridge Crystallographic Data Centre
#                                CCDC
#
#######################################################################
#
# If this CIF has been generated from an entry in the Cambridge
# Structural Database, then it will include bibliographic, chemical,
# crystal, experimental, refinement or atomic coordinate data resulting
# from the CCDC's data processing and validation procedures.
#
#######################################################################

data_CSD_CIF_BUJPAZ
_audit_creation_date 2015-07-31
_audit_creation_method CSD-ConQuest-V1
_database_code_CSD BUJPAZ
_database_code_depnum_ccdc_archive 'CCDC 1416167'
_chemical_formula_sum 'C43 H52 Cl3 Cr1 Li1 N3 O2'
_chemical_formula_moiety
;
C36 H44 Cl3 Cr1 Li1 N3 O2,C7 H8
;
_journal_coden_Cambridge 579
_journal_volume 34
_journal_year 2015
_journal_page_first 2783
_journal_name_full 'Organometallics '
loop_
_publ_author_name
"Zhiqiang Hao"
"Bin Xu"
"Wei Gao"
"Yuxi Han"
"Guang Zeng"
"Jingshun Zhang"
"GuanghuaLi"
"Ying Mu"
_chemical_name_systematic
;
bis(\m-chloro)-chloro-(N-(2-(((2,6-diisopropylphenyl)imino)methyl)phenyl)quino
lin-8-aminato)-bis(tetrahydrofuran)-lithium-chromium toluene solvate
;
_cell_volume   2062.787
_exptl_crystal_colour 'brown'
_exptl_crystal_density_diffrn 1.301
_exptl_crystal_description 'block'
_diffrn_ambient_temperature 185
#These two values have been output from a single CSD field.
_refine_ls_R_factor_gt 0.0756
_refine_ls_wR_factor_gt 0.0756
_symmetry_cell_setting triclinic
_symmetry_space_group_name_H-M 'P -1'
_symmetry_Int_Tables_number 2
loop_
_symmetry_equiv_pos_site_id
_symmetry_equiv_pos_as_xyz
1 x,y,z
2 -x,-y,-z
_cell_length_a 9.7051(8)
_cell_length_b 11.1892(9)
_cell_length_c 21.4980(19)
_cell_angle_alpha 89.563(2)
_cell_angle_beta 77.673(2)
_cell_angle_gamma 65.273(2)
_cell_formula_units_Z 2
loop_
_atom_type_symbol
_atom_type_radius_bond
C 0.68
H 0.23
Cl 0.99
Cr 1.39
Li 1.28
N 0.68
O 0.68
loop_
_atom_site_label
_atom_site_type_symbol
_atom_site_fract_x
_atom_site_fract_y
_atom_site_fract_z
C37 C 0.8413(8) 0.9188(9) 0.0319(4)
C38 C 0.9674(9) 0.7559(8) 0.1220(4)
H45 H 1.01100 0.69910 0.15250
C39 C 0.9287(10) 0.7083(9) 0.0722(5)
H46 H 0.94550 0.61840 0.06870
C40 C 0.867(1) 0.7896(9) 0.0286(4)
H47 H 0.84090 0.75540 -0.00520
C41 C 0.8788(9) 0.9678(8) 0.0818(4)
H48 H 0.86120 1.05790 0.08530
C42 C 0.9424(10) 0.8848(9) 0.1267(4)
H49 H 0.96830 0.91830 0.16080
C43 C 0.7723(11) 1.007(1) -0.0154(4)
H50 H 0.84460 0.97770 -0.05750
H51 H 0.75270 1.09760 -0.00260
H52 H 0.67380 1.00410 -0.01750
#END
